p cnf 533 1178
-2 1 0
-4 3 0
-6 5 0
-8 7 0
-10 9 0
-12 11 0
-14 13 0
-16 15 0
-18 17 0
-20 19 0
36 0
21 37 0
-20 37 0
21 -20 38 0
-19 37 0
21 -19 38 0
-20 -19 38 0
21 -20 -19 39 0
-18 40 0
-17 40 0
-18 -17 41 0
-16 40 0
-18 -16 41 0
-17 -16 41 0
-18 -17 -16 42 0
-15 43 0
-2 43 0
-15 -2 44 0
-1 43 0
-15 -1 44 0
-2 -1 44 0
-15 -2 -1 45 0
-40 46 0
-41 47 0
-42 48 0
-43 46 0
-44 47 0
-45 48 0
-40 -43 47 0
-40 -44 48 0
-40 -45 49 0
-41 -43 48 0
-41 -44 49 0
-41 -45 50 0
-42 -43 49 0
-42 -44 50 0
-42 -45 51 0
-37 52 0
-38 53 0
-39 54 0
-46 52 0
-47 53 0
-48 54 0
-49 55 0
-50 56 0
-51 57 0
-37 -46 53 0
-37 -47 54 0
-37 -48 55 0
-37 -49 56 0
-37 -50 57 0
-37 -51 58 0
-38 -46 54 0
-38 -47 55 0
-38 -48 56 0
-38 -49 57 0
-38 -50 58 0
-38 -51 59 0
-39 -46 55 0
-39 -47 56 0
-39 -48 57 0
-39 -49 58 0
-39 -50 59 0
-39 -51 60 0
22 61 0
21 61 0
22 21 62 0
-61 63 0
-62 64 0
-53 63 0
-55 64 0
-57 65 0
-59 66 0
-61 -53 64 0
-61 -55 65 0
-61 -57 66 0
-61 -59 67 0
-62 -53 65 0
-62 -55 66 0
-62 -57 67 0
-62 -59 68 0
-68 0
22 69 0
-64 69 0
-66 70 0
-68 71 0
22 -64 70 0
22 -66 71 0
-71 0
72 0
-21 73 0
20 73 0
-21 20 74 0
19 73 0
-21 19 74 0
20 19 74 0
-21 20 19 75 0
-72 76 0
-73 76 0
-74 77 0
-75 78 0
-72 -73 77 0
-72 -74 78 0
-72 -75 79 0
18 80 0
17 80 0
18 17 81 0
16 80 0
18 16 81 0
17 16 81 0
18 17 16 82 0
15 83 0
2 83 0
15 2 84 0
1 83 0
15 1 84 0
2 1 84 0
15 2 1 85 0
-80 86 0
-81 87 0
-82 88 0
-83 86 0
-84 87 0
-85 88 0
-80 -83 87 0
-80 -84 88 0
-80 -85 89 0
-81 -83 88 0
-81 -84 89 0
-81 -85 90 0
-82 -83 89 0
-82 -84 90 0
-82 -85 91 0
-76 92 0
-77 93 0
-78 94 0
-79 95 0
-86 92 0
-87 93 0
-88 94 0
-89 95 0
-90 96 0
-91 97 0
-76 -86 93 0
-76 -87 94 0
-76 -88 95 0
-76 -89 96 0
-76 -90 97 0
-76 -91 98 0
-77 -86 94 0
-77 -87 95 0
-77 -88 96 0
-77 -89 97 0
-77 -90 98 0
-77 -91 99 0
-78 -86 95 0
-78 -87 96 0
-78 -88 97 0
-78 -89 98 0
-78 -90 99 0
-79 -86 96 0
-79 -87 97 0
-79 -88 98 0
-79 -89 99 0
-99 0
-22 100 0
-21 100 0
-22 -21 101 0
-100 102 0
-101 103 0
-93 102 0
-95 103 0
-97 104 0
-99 105 0
-100 -93 103 0
-100 -95 104 0
-100 -97 105 0
-101 -93 104 0
-101 -95 105 0
-105 0
-22 106 0
-103 106 0
-105 107 0
-22 -103 107 0
-107 0
-108 22 0
-108 -21 0
-109 -22 0
-109 21 0
110 0
23 111 0
-18 111 0
23 -18 112 0
-17 111 0
23 -17 112 0
-18 -17 112 0
23 -18 -17 113 0
-15 114 0
-4 114 0
-15 -4 115 0
-3 114 0
-15 -3 115 0
-4 -3 115 0
-15 -4 -3 116 0
-16 117 0
-114 117 0
-115 118 0
-116 119 0
-16 -114 118 0
-16 -115 119 0
-16 -116 120 0
-111 121 0
-112 122 0
-113 123 0
-117 121 0
-118 122 0
-119 123 0
-120 124 0
-111 -117 122 0
-111 -118 123 0
-111 -119 124 0
-111 -120 125 0
-112 -117 123 0
-112 -118 124 0
-112 -119 125 0
-112 -120 126 0
-113 -117 124 0
-113 -118 125 0
-113 -119 126 0
-113 -120 127 0
-110 128 0
24 128 0
-110 24 129 0
23 128 0
-110 23 129 0
24 23 129 0
-110 24 23 130 0
-128 131 0
-129 132 0
-130 133 0
-122 131 0
-124 132 0
-126 133 0
-128 -122 132 0
-128 -124 133 0
-128 -126 134 0
-129 -122 133 0
-129 -124 134 0
-129 -126 135 0
-130 -122 134 0
-130 -124 135 0
-130 -126 136 0
-136 0
24 137 0
-132 137 0
-134 138 0
-136 139 0
24 -132 138 0
24 -134 139 0
-139 0
140 0
-140 141 0
-23 141 0
-140 -23 142 0
18 141 0
-140 18 142 0
-23 18 142 0
-140 -23 18 143 0
17 144 0
16 144 0
17 16 145 0
15 146 0
4 146 0
15 4 147 0
3 146 0
15 3 147 0
4 3 147 0
15 4 3 148 0
-144 149 0
-145 150 0
-146 149 0
-147 150 0
-148 151 0
-144 -146 150 0
-144 -147 151 0
-144 -148 152 0
-145 -146 151 0
-145 -147 152 0
-145 -148 153 0
-141 154 0
-142 155 0
-143 156 0
-149 154 0
-150 155 0
-151 156 0
-152 157 0
-153 158 0
-141 -149 155 0
-141 -150 156 0
-141 -151 157 0
-141 -152 158 0
-141 -153 159 0
-142 -149 156 0
-142 -150 157 0
-142 -151 158 0
-142 -152 159 0
-142 -153 160 0
-143 -149 157 0
-143 -150 158 0
-143 -151 159 0
-143 -152 160 0
-143 -153 161 0
-161 0
-24 162 0
-23 162 0
-24 -23 163 0
-162 164 0
-163 165 0
-155 164 0
-157 165 0
-159 166 0
-161 167 0
-162 -155 165 0
-162 -157 166 0
-162 -159 167 0
-163 -155 166 0
-163 -157 167 0
-167 0
-24 168 0
-165 168 0
-167 169 0
-24 -165 169 0
-169 0
-170 24 0
-170 -23 0
-171 -24 0
-171 23 0
172 0
-172 173 0
25 173 0
-172 25 174 0
-18 173 0
-172 -18 174 0
25 -18 174 0
-172 25 -18 175 0
-17 176 0
-6 176 0
-17 -6 177 0
-5 176 0
-17 -5 177 0
-6 -5 177 0
-17 -6 -5 178 0
-173 179 0
-174 180 0
-175 181 0
-176 179 0
-177 180 0
-178 181 0
-173 -176 180 0
-173 -177 181 0
-173 -178 182 0
-174 -176 181 0
-174 -177 182 0
-174 -178 183 0
-175 -176 182 0
-175 -177 183 0
-175 -178 184 0
-184 0
25 185 0
-180 185 0
-182 186 0
-184 187 0
25 -180 186 0
25 -182 187 0
-187 0
188 0
-25 189 0
18 189 0
-25 18 190 0
17 191 0
6 191 0
17 6 192 0
5 191 0
17 5 192 0
6 5 192 0
17 6 5 193 0
-189 194 0
-190 195 0
-191 194 0
-192 195 0
-193 196 0
-189 -191 195 0
-189 -192 196 0
-189 -193 197 0
-190 -191 196 0
-190 -192 197 0
-197 0
-25 198 0
-195 198 0
-197 199 0
-25 -195 199 0
-199 0
200 0
26 201 0
-16 201 0
26 -16 202 0
-15 203 0
-8 203 0
-15 -8 204 0
-7 203 0
-15 -7 204 0
-8 -7 204 0
-15 -8 -7 205 0
-201 206 0
-202 207 0
-203 206 0
-204 207 0
-205 208 0
-201 -203 207 0
-201 -204 208 0
-201 -205 209 0
-202 -203 208 0
-202 -204 209 0
-202 -205 210 0
-200 211 0
27 211 0
-200 27 212 0
26 211 0
-200 26 212 0
27 26 212 0
-200 27 26 213 0
-19 214 0
-18 214 0
-19 -18 215 0
-17 214 0
-19 -17 215 0
-18 -17 215 0
-19 -18 -17 216 0
-20 217 0
-214 217 0
-215 218 0
-216 219 0
-20 -214 218 0
-20 -215 219 0
-20 -216 220 0
-211 221 0
-212 222 0
-213 223 0
-217 221 0
-218 222 0
-219 223 0
-220 224 0
-211 -217 222 0
-211 -218 223 0
-211 -219 224 0
-211 -220 225 0
-212 -217 223 0
-212 -218 224 0
-212 -219 225 0
-212 -220 226 0
-213 -217 224 0
-213 -218 225 0
-213 -219 226 0
-213 -220 227 0
-221 228 0
-222 229 0
-223 230 0
-224 231 0
-225 232 0
-226 233 0
-227 234 0
-207 228 0
-209 229 0
-221 -207 229 0
-221 -209 230 0
-222 -207 230 0
-222 -209 231 0
-223 -207 231 0
-223 -209 232 0
-224 -207 232 0
-224 -209 233 0
-225 -207 233 0
-225 -209 234 0
-226 -207 234 0
-226 -209 235 0
-227 -207 235 0
-227 -209 236 0
28 237 0
27 237 0
28 27 238 0
-237 239 0
-238 240 0
-229 239 0
-231 240 0
-233 241 0
-235 242 0
-237 -229 240 0
-237 -231 241 0
-237 -233 242 0
-237 -235 243 0
-238 -229 241 0
-238 -231 242 0
-238 -233 243 0
-238 -235 244 0
-244 0
28 245 0
-240 245 0
-242 246 0
-244 247 0
28 -240 246 0
28 -242 247 0
-247 0
248 0
-248 249 0
-26 249 0
-248 -26 250 0
16 249 0
-248 16 250 0
-26 16 250 0
-248 -26 16 251 0
15 252 0
8 252 0
15 8 253 0
7 252 0
15 7 253 0
8 7 253 0
15 8 7 254 0
-249 255 0
-250 256 0
-251 257 0
-252 255 0
-253 256 0
-254 257 0
-249 -252 256 0
-249 -253 257 0
-249 -254 258 0
-250 -252 257 0
-250 -253 258 0
-250 -254 259 0
-251 -252 258 0
-251 -253 259 0
-251 -254 260 0
-248 261 0
-27 261 0
-248 -27 262 0
-26 261 0
-248 -26 262 0
-27 -26 262 0
-248 -27 -26 263 0
19 264 0
18 264 0
19 18 265 0
17 264 0
19 17 265 0
18 17 265 0
19 18 17 266 0
20 267 0
-264 267 0
-265 268 0
-266 269 0
20 -264 268 0
20 -265 269 0
20 -266 270 0
-261 271 0
-262 272 0
-263 273 0
-267 271 0
-268 272 0
-269 273 0
-270 274 0
-261 -267 272 0
-261 -268 273 0
-261 -269 274 0
-261 -270 275 0
-262 -267 273 0
-262 -268 274 0
-262 -269 275 0
-262 -270 276 0
-263 -267 274 0
-263 -268 275 0
-263 -269 276 0
-263 -270 277 0
-271 278 0
-272 279 0
-273 280 0
-274 281 0
-275 282 0
-276 283 0
-277 284 0
-256 278 0
-258 279 0
-260 280 0
-271 -256 279 0
-271 -258 280 0
-271 -260 281 0
-272 -256 280 0
-272 -258 281 0
-272 -260 282 0
-273 -256 281 0
-273 -258 282 0
-273 -260 283 0
-274 -256 282 0
-274 -258 283 0
-274 -260 284 0
-275 -256 283 0
-275 -258 284 0
-275 -260 285 0
-276 -256 284 0
-276 -258 285 0
-277 -256 285 0
-285 0
-28 286 0
-27 286 0
-28 -27 287 0
-286 288 0
-287 289 0
-279 288 0
-281 289 0
-283 290 0
-285 291 0
-286 -279 289 0
-286 -281 290 0
-286 -283 291 0
-287 -279 290 0
-287 -281 291 0
-291 0
-28 292 0
-289 292 0
-291 293 0
-28 -289 293 0
-293 0
-294 28 0
-294 -26 0
-294 -27 0
-295 -28 0
296 0
29 297 0
-20 297 0
29 -20 298 0
-19 299 0
-10 299 0
-19 -10 300 0
-9 299 0
-19 -9 300 0
-10 -9 300 0
-19 -10 -9 301 0
-297 302 0
-298 303 0
-299 302 0
-300 303 0
-301 304 0
-297 -299 303 0
-297 -300 304 0
-297 -301 305 0
-298 -299 304 0
-298 -300 305 0
-298 -301 306 0
29 307 0
-16 307 0
29 -16 308 0
-15 307 0
29 -15 308 0
-16 -15 308 0
29 -16 -15 309 0
30 310 0
-307 310 0
-308 311 0
-309 312 0
30 -307 311 0
30 -308 312 0
30 -309 313 0
-310 314 0
-311 315 0
-312 316 0
-313 317 0
-303 314 0
-305 315 0
-310 -303 315 0
-310 -305 316 0
-311 -303 316 0
-311 -305 317 0
-312 -303 317 0
-312 -305 318 0
-313 -303 318 0
-313 -305 319 0
-319 0
30 320 0
-315 320 0
-317 321 0
-319 322 0
30 -315 321 0
30 -317 322 0
-322 0
323 0
-323 324 0
-29 324 0
-323 -29 325 0
20 324 0
-323 20 325 0
-29 20 325 0
-323 -29 20 326 0
19 327 0
10 327 0
19 10 328 0
9 327 0
19 9 328 0
10 9 328 0
19 10 9 329 0
-324 330 0
-325 331 0
-326 332 0
-327 330 0
-328 331 0
-329 332 0
-324 -327 331 0
-324 -328 332 0
-324 -329 333 0
-325 -327 332 0
-325 -328 333 0
-325 -329 334 0
-326 -327 333 0
-326 -328 334 0
-326 -329 335 0
-29 336 0
16 336 0
-29 16 337 0
15 336 0
-29 15 337 0
16 15 337 0
-29 16 15 338 0
-30 339 0
-336 339 0
-337 340 0
-338 341 0
-30 -336 340 0
-30 -337 341 0
-30 -338 342 0
-342 0
-339 343 0
-340 344 0
-341 345 0
-342 346 0
-331 343 0
-333 344 0
-335 345 0
-339 -331 344 0
-339 -333 345 0
-339 -335 346 0
-340 -331 345 0
-340 -333 346 0
-341 -331 346 0
-346 0
-30 347 0
-344 347 0
-346 348 0
-30 -344 348 0
-348 0
-349 30 0
-349 -29 0
350 0
31 351 0
-16 351 0
31 -16 352 0
-15 353 0
-12 353 0
-15 -12 354 0
-11 353 0
-15 -11 354 0
-12 -11 354 0
-15 -12 -11 355 0
-351 356 0
-352 357 0
-353 356 0
-354 357 0
-355 358 0
-351 -353 357 0
-351 -354 358 0
-351 -355 359 0
-352 -353 358 0
-352 -354 359 0
-352 -355 360 0
-350 361 0
32 361 0
-350 32 362 0
31 361 0
-350 31 362 0
32 31 362 0
-350 32 31 363 0
-19 364 0
-18 364 0
-19 -18 365 0
-17 364 0
-19 -17 365 0
-18 -17 365 0
-19 -18 -17 366 0
-20 367 0
-364 367 0
-365 368 0
-366 369 0
-20 -364 368 0
-20 -365 369 0
-20 -366 370 0
-361 371 0
-362 372 0
-363 373 0
-367 371 0
-368 372 0
-369 373 0
-370 374 0
-361 -367 372 0
-361 -368 373 0
-361 -369 374 0
-361 -370 375 0
-362 -367 373 0
-362 -368 374 0
-362 -369 375 0
-362 -370 376 0
-363 -367 374 0
-363 -368 375 0
-363 -369 376 0
-363 -370 377 0
-371 378 0
-372 379 0
-373 380 0
-374 381 0
-375 382 0
-376 383 0
-377 384 0
-357 378 0
-359 379 0
-371 -357 379 0
-371 -359 380 0
-372 -357 380 0
-372 -359 381 0
-373 -357 381 0
-373 -359 382 0
-374 -357 382 0
-374 -359 383 0
-375 -357 383 0
-375 -359 384 0
-376 -357 384 0
-376 -359 385 0
-377 -357 385 0
-377 -359 386 0
33 387 0
32 387 0
33 32 388 0
-387 389 0
-388 390 0
-379 389 0
-381 390 0
-383 391 0
-385 392 0
-387 -379 390 0
-387 -381 391 0
-387 -383 392 0
-387 -385 393 0
-388 -379 391 0
-388 -381 392 0
-388 -383 393 0
-388 -385 394 0
-394 0
33 395 0
-390 395 0
-392 396 0
-394 397 0
33 -390 396 0
33 -392 397 0
-397 0
398 0
-398 399 0
-31 399 0
-398 -31 400 0
16 399 0
-398 16 400 0
-31 16 400 0
-398 -31 16 401 0
15 402 0
12 402 0
15 12 403 0
11 402 0
15 11 403 0
12 11 403 0
15 12 11 404 0
-399 405 0
-400 406 0
-401 407 0
-402 405 0
-403 406 0
-404 407 0
-399 -402 406 0
-399 -403 407 0
-399 -404 408 0
-400 -402 407 0
-400 -403 408 0
-400 -404 409 0
-401 -402 408 0
-401 -403 409 0
-401 -404 410 0
-398 411 0
-32 411 0
-398 -32 412 0
-31 411 0
-398 -31 412 0
-32 -31 412 0
-398 -32 -31 413 0
19 414 0
18 414 0
19 18 415 0
17 414 0
19 17 415 0
18 17 415 0
19 18 17 416 0
20 417 0
-414 417 0
-415 418 0
-416 419 0
20 -414 418 0
20 -415 419 0
20 -416 420 0
-411 421 0
-412 422 0
-413 423 0
-417 421 0
-418 422 0
-419 423 0
-420 424 0
-411 -417 422 0
-411 -418 423 0
-411 -419 424 0
-411 -420 425 0
-412 -417 423 0
-412 -418 424 0
-412 -419 425 0
-412 -420 426 0
-413 -417 424 0
-413 -418 425 0
-413 -419 426 0
-413 -420 427 0
-421 428 0
-422 429 0
-423 430 0
-424 431 0
-425 432 0
-426 433 0
-427 434 0
-406 428 0
-408 429 0
-410 430 0
-421 -406 429 0
-421 -408 430 0
-421 -410 431 0
-422 -406 430 0
-422 -408 431 0
-422 -410 432 0
-423 -406 431 0
-423 -408 432 0
-423 -410 433 0
-424 -406 432 0
-424 -408 433 0
-424 -410 434 0
-425 -406 433 0
-425 -408 434 0
-425 -410 435 0
-426 -406 434 0
-426 -408 435 0
-427 -406 435 0
-435 0
-33 436 0
-32 436 0
-33 -32 437 0
-436 438 0
-437 439 0
-429 438 0
-431 439 0
-433 440 0
-435 441 0
-436 -429 439 0
-436 -431 440 0
-436 -433 441 0
-437 -429 440 0
-437 -431 441 0
-441 0
-33 442 0
-439 442 0
-441 443 0
-33 -439 443 0
-443 0
-444 33 0
-444 -31 0
-444 -32 0
-445 -33 0
446 0
34 447 0
-16 447 0
34 -16 448 0
-15 449 0
-14 449 0
-15 -14 450 0
-13 449 0
-15 -13 450 0
-14 -13 450 0
-15 -14 -13 451 0
-447 452 0
-448 453 0
-449 452 0
-450 453 0
-451 454 0
-447 -449 453 0
-447 -450 454 0
-447 -451 455 0
-448 -449 454 0
-448 -450 455 0
-448 -451 456 0
34 457 0
-20 457 0
34 -20 458 0
-19 457 0
34 -19 458 0
-20 -19 458 0
34 -20 -19 459 0
35 460 0
-457 460 0
-458 461 0
-459 462 0
35 -457 461 0
35 -458 462 0
35 -459 463 0
-460 464 0
-461 465 0
-462 466 0
-463 467 0
-453 464 0
-455 465 0
-460 -453 465 0
-460 -455 466 0
-461 -453 466 0
-461 -455 467 0
-462 -453 467 0
-462 -455 468 0
-463 -453 468 0
-463 -455 469 0
-469 0
35 470 0
-465 470 0
-467 471 0
-469 472 0
35 -465 471 0
35 -467 472 0
-472 0
473 0
-473 474 0
-34 474 0
-473 -34 475 0
16 474 0
-473 16 475 0
-34 16 475 0
-473 -34 16 476 0
15 477 0
14 477 0
15 14 478 0
13 477 0
15 13 478 0
14 13 478 0
15 14 13 479 0
-474 480 0
-475 481 0
-476 482 0
-477 480 0
-478 481 0
-479 482 0
-474 -477 481 0
-474 -478 482 0
-474 -479 483 0
-475 -477 482 0
-475 -478 483 0
-475 -479 484 0
-476 -477 483 0
-476 -478 484 0
-476 -479 485 0
-34 486 0
20 486 0
-34 20 487 0
19 486 0
-34 19 487 0
20 19 487 0
-34 20 19 488 0
-35 489 0
-486 489 0
-487 490 0
-488 491 0
-35 -486 490 0
-35 -487 491 0
-35 -488 492 0
-492 0
-489 493 0
-490 494 0
-491 495 0
-492 496 0
-481 493 0
-483 494 0
-485 495 0
-489 -481 494 0
-489 -483 495 0
-489 -485 496 0
-490 -481 495 0
-490 -483 496 0
-491 -481 496 0
-496 0
-35 497 0
-494 497 0
-496 498 0
-35 -494 498 0
-498 0
-499 35 0
-499 -34 0
1 500 0
3 500 0
1 3 501 0
5 502 0
7 502 0
5 7 503 0
9 504 0
11 504 0
9 11 505 0
13 506 0
15 506 0
13 15 507 0
17 508 0
19 508 0
17 19 509 0
-506 510 0
-508 510 0
-506 -508 511 0
-507 512 0
-509 512 0
-507 -509 513 0
-511 514 0
-512 514 0
-511 -512 515 0
-504 516 0
-510 516 0
-504 -510 517 0
-505 518 0
-514 518 0
-505 -514 519 0
-517 520 0
-518 520 0
-517 -518 521 0
-502 522 0
-516 522 0
-502 -516 523 0
-503 524 0
-520 524 0
-503 -520 525 0
-523 526 0
-524 526 0
-523 -524 527 0
-500 528 0
-522 528 0
-500 -522 529 0
-501 530 0
-526 530 0
-501 -526 531 0
-529 532 0
-530 532 0
-529 -530 533 0
-532 0
